pseudo-Boolean proof version 1.0
f 4
* ==============================================================
* First model found:
o ~x1 x2 ~x3 x4 ~x5 ~x6 ~x7 
* ==============================================================
* Cardinality encoding:
red 1 y8  >= 1; y8 -> 1
red 1 ~y9  >= 1; y9 -> 0
red 1 y10  >= 1; y10 -> 1
red 1 ~y11  >= 1; y11 -> 0
red 1 y12  >= 1; y12 -> 1
red 1 ~y13  >= 1; y13 -> 0
red 1 y14  >= 1; y14 -> 1
red 1 ~y15  >= 1; y15 -> 0
red 1 y16  >= 1; y16 -> 1
red 1 ~y17  >= 1; y17 -> 0
* - Node clauses:
red 1 ~y14 1 ~y16 1 y12  >= 1; y12 -> 1
red 1 x4 1 x5 1 ~v1_x4_x5  >= 1; v1_x4_x5 -> 0
red 1 ~y14 1 ~x5 1 v1_x4_x5  >= 1; v1_x4_x5 -> 1
red 1 x4 1 y17 1 ~v2_x4_x5  >= 1; v2_x4_x5 -> 0
red 1 ~x4 1 ~y16 1 v1_x4_x5  >= 1; v1_x4_x5 -> 1
red 1 y15 1 x5 1 ~v2_x4_x5  >= 1; v2_x4_x5 -> 0
red 1 ~x4 1 ~x5 1 v2_x4_x5  >= 1; v2_x4_x5 -> 1
red 1 y15 1 y17 1 ~y13  >= 1; y13 -> 0
* -------------------------------------------
red 1 y20  >= 1; y20 -> 1
red 1 ~y21  >= 1; y21 -> 0
* - Node clauses:
red 1 ~y12 1 ~y20 1 y10  >= 1; y10 -> 1
red 1 v1_x4_x5 1 x6 1 ~v1_x4_x6  >= 1; v1_x4_x6 -> 0
red 1 ~y12 1 ~x6 1 v1_x4_x6  >= 1; v1_x4_x6 -> 1
red 1 v1_x4_x5 1 y21 1 ~v2_x4_x6  >= 1; v2_x4_x6 -> 0
red 1 ~v1_x4_x5 1 ~y20 1 v1_x4_x6  >= 1; v1_x4_x6 -> 1
red 1 v2_x4_x5 1 x6 1 ~v2_x4_x6  >= 1; v2_x4_x6 -> 0
red 1 ~v1_x4_x5 1 ~x6 1 v2_x4_x6  >= 1; v2_x4_x6 -> 1
red 1 v2_x4_x5 1 y21 1 ~v3_x4_x6  >= 1; v3_x4_x6 -> 0
red 1 ~v2_x4_x5 1 ~y20 1 v2_x4_x6  >= 1; v2_x4_x6 -> 1
red 1 y13 1 x6 1 ~v3_x4_x6  >= 1; v3_x4_x6 -> 0
red 1 ~v2_x4_x5 1 ~x6 1 v3_x4_x6  >= 1; v3_x4_x6 -> 1
red 1 y13 1 y21 1 ~y11  >= 1; y11 -> 0
* -------------------------------------------
red 1 y25  >= 1; y25 -> 1
red 1 ~y26  >= 1; y26 -> 0
* - Node clauses:
red 1 ~y10 1 ~y25 1 y8  >= 1; y8 -> 1
red 1 v1_x4_x6 1 x7 1 ~v1_x4_x7  >= 1; v1_x4_x7 -> 0
red 1 ~y10 1 ~x7 1 v1_x4_x7  >= 1; v1_x4_x7 -> 1
red 1 v1_x4_x6 1 y26 1 ~v2_x4_x7  >= 1; v2_x4_x7 -> 0
red 1 ~v1_x4_x6 1 ~y25 1 v1_x4_x7  >= 1; v1_x4_x7 -> 1
red 1 v2_x4_x6 1 x7 1 ~v2_x4_x7  >= 1; v2_x4_x7 -> 0
red 1 ~v1_x4_x6 1 ~x7 1 v2_x4_x7  >= 1; v2_x4_x7 -> 1
red 1 v2_x4_x6 1 y26 1 ~v3_x4_x7  >= 1; v3_x4_x7 -> 0
red 1 ~v2_x4_x6 1 ~y25 1 v2_x4_x7  >= 1; v2_x4_x7 -> 1
red 1 v3_x4_x6 1 x7 1 ~v3_x4_x7  >= 1; v3_x4_x7 -> 0
red 1 ~v2_x4_x6 1 ~x7 1 v3_x4_x7  >= 1; v3_x4_x7 -> 1
red 1 v3_x4_x6 1 y26 1 ~v4_x4_x7  >= 1; v4_x4_x7 -> 0
red 1 ~v3_x4_x6 1 ~y25 1 v3_x4_x7  >= 1; v3_x4_x7 -> 1
red 1 y11 1 x7 1 ~v4_x4_x7  >= 1; v4_x4_x7 -> 0
red 1 ~v3_x4_x6 1 ~x7 1 v4_x4_x7  >= 1; v4_x4_x7 -> 1
red 1 y11 1 y26 1 ~y9  >= 1; y9 -> 0
* -------------------------------------------
* ==============================================================
* Constraining through linking variables:
u 1 ~v1_x4_x7  >= 1;
u 1 ~v2_x4_x7  >= 1;
u 1 ~v3_x4_x7  >= 1;
u 1 ~v4_x4_x7  >= 1;
* ==============================================================
u >= 1;
c 60
